<number of tasks>
20

<cycle time>
1000

<order strength>
0,237


<task times>
1 351
2 368
3 522
4 311
5 681
6 457
7 434
8 354
9 527
10 460
11 334
12 601
13 501
14 344
15 421
16 586
17 384
18 338
19 296
20 416

<precedence relations>
1,4
1,6
2,5
3,7
4,9
5,8
6,10
8,11
8,12
9,13
9,14
9,15
11,20
13,19
14,16
14,18
15,17

<end>
